<?xml version = "1.0" standalone="yes"?>
<!-- This file has been generated by DOcplex version 2.23.222  -->
<CPLEXSolution version="1.0">
 <header
   problemName="CVRP"
   objectiveValue="17365.5"
  />
 <variables>
  <variable name="x_0_2" index="1" value="1.00000"/>
  <variable name="x_0_3" index="2" value="1.00000"/>
  <variable name="x_0_4" index="3" value="1.00000"/>
  <variable name="x_0_7" index="6" value="1.00000"/>
  <variable name="x_0_9" index="8" value="1.00000"/>
  <variable name="x_0_10" index="9" value="1.00000"/>
  <variable name="x_0_11" index="10" value="1.00000"/>
  <variable name="x_0_14" index="13" value="1.00000"/>
  <variable name="x_0_15" index="14" value="1.00000"/>
  <variable name="x_0_16" index="15" value="1.00000"/>
  <variable name="x_0_18" index="17" value="1.00000"/>
  <variable name="x_0_19" index="18" value="1.00000"/>
  <variable name="x_0_20" index="19" value="1.00000"/>
  <variable name="x_0_21" index="20" value="1.00000"/>
  <variable name="x_0_22" index="21" value="1.00000"/>
  <variable name="x_0_24" index="23" value="1.00000"/>
  <variable name="x_1_0" index="25" value="1.00000"/>
  <variable name="x_2_0" index="50" value="1.00000"/>
  <variable name="x_3_25" index="99" value="1.00000"/>
  <variable name="x_4_13" index="112" value="1.00000"/>
  <variable name="x_5_1" index="126" value="1.00000"/>
  <variable name="x_6_0" index="150" value="1.00000"/>
  <variable name="x_7_12" index="186" value="1.00000"/>
  <variable name="x_8_0" index="200" value="1.00000"/>
  <variable name="x_9_0" index="225" value="1.00000"/>
  <variable name="x_10_0" index="250" value="1.00000"/>
  <variable name="x_11_0" index="275" value="1.00000"/>
  <variable name="x_12_23" index="322" value="1.00000"/>
  <variable name="x_13_0" index="325" value="1.00000"/>
  <variable name="x_14_0" index="350" value="1.00000"/>
  <variable name="x_15_0" index="375" value="1.00000"/>
  <variable name="x_16_0" index="400" value="1.00000"/>
  <variable name="x_17_0" index="425" value="1.00000"/>
  <variable name="x_18_17" index="467" value="1.00000"/>
  <variable name="x_19_8" index="483" value="1.00000"/>
  <variable name="x_20_0" index="500" value="1.00000"/>
  <variable name="x_21_5" index="530" value="1.00000"/>
  <variable name="x_22_6" index="556" value="1.00000"/>
  <variable name="x_23_0" index="575" value="1.00000"/>
  <variable name="x_24_0" index="600" value="1.00000"/>
  <variable name="x_25_0" index="625" value="1.00000"/>
  <variable name="u_1" index="650" value="78.00000"/>
  <variable name="u_2" index="651" value="64.00000"/>
  <variable name="u_3" index="652" value="43.00000"/>
  <variable name="u_4" index="653" value="61.00000"/>
  <variable name="u_5" index="654" value="61.00000"/>
  <variable name="u_6" index="655" value="79.00000"/>
  <variable name="u_7" index="656" value="32.00000"/>
  <variable name="u_8" index="657" value="61.00000"/>
  <variable name="u_9" index="658" value="74.00000"/>
  <variable name="u_10" index="659" value="59.00000"/>
  <variable name="u_11" index="660" value="60.00000"/>
  <variable name="u_12" index="661" value="55.00000"/>
  <variable name="u_13" index="662" value="67.00000"/>
  <variable name="u_14" index="663" value="79.00000"/>
  <variable name="u_15" index="664" value="50.00000"/>
  <variable name="u_16" index="665" value="73.00000"/>
  <variable name="u_17" index="666" value="76.00000"/>
  <variable name="u_18" index="667" value="36.00000"/>
  <variable name="u_19" index="668" value="48.00000"/>
  <variable name="u_20" index="669" value="63.00000"/>
  <variable name="u_21" index="670" value="52.00000"/>
  <variable name="u_22" index="671" value="39.00000"/>
  <variable name="u_23" index="672" value="78.00000"/>
  <variable name="u_24" index="673" value="66.00000"/>
  <variable name="u_25" index="674" value="75.00000"/>
 </variables>
</CPLEXSolution>
